0
Node Left Objective IInf Best_Integer Best_Bound ItCnt Gap
0+ 0 nan nan 136.4723 0.0000 nan 100.00%
0+ 0 nan nan 99.1655 0.0000 nan 100.00%
0 0 0.0000 27 99.1655 0.0000 129 100.00%
0+ 0 nan nan 79.3010 0.0000 nan 100.00%
0 2 0.0000 25 79.3010 0.0000 129 100.00%
CPXPARAM_MIP_Cuts_Cliques 0
1
Node Left Objective IInf Best_Integer Best_Bound ItCnt Gap
0+ 0 nan nan 136.4723 0.0000 nan 100.00%
0+ 0 nan nan 99.1655 0.0000 nan 100.00%
0 0 0.0000 27 99.1655 0.0000 128 100.00%
0+ 0 nan nan 81.0831 0.0000 nan 100.00%
0+ 0 nan nan 75.7918 0.0000 nan 100.00%
0 2 0.0000 18 75.7918 0.0000 128 100.00%
CPXPARAM_MIP_Cuts_Cliques 0
2
Node Left Objective IInf Best_Integer Best_Bound ItCnt Gap
0+ 0 nan nan 136.4723 0.0000 nan 100.00%
0+ 0 nan nan 69.8576 0.0000 nan 100.00%
0 0 0.0000 23 69.8576 0.0000 121 100.00%
0+ 0 nan nan 64.0713 0.0000 nan 100.00%
0+ 0 nan nan 52.7316 0.0000 nan 100.00%
0 2 0.0000 19 52.7316 0.0000 121 100.00%
CPXPARAM_MIP_Cuts_Cliques 0
3
Node Left Objective IInf Best_Integer Best_Bound ItCnt Gap
0+ 0 nan nan 136.4723 0.0000 nan 100.00%
0+ 0 nan nan 69.8576 0.0000 nan 100.00%
0 0 0.0000 24 69.8576 0.0000 115 100.00%
0+ 0 nan nan 58.0305 0.0000 nan 100.00%
0+ 0 nan nan 32.6959 0.0000 nan 100.00%
0 2 0.0000 14 32.6959 0.0000 115 100.00%
CPXPARAM_MIP_Cuts_Cliques 0
4
Node Left Objective IInf Best_Integer Best_Bound ItCnt Gap
0+ 0 nan nan 115.1924 0.0000 nan 100.00%
0+ 0 nan nan 108.1598 0.0000 nan 100.00%
0+ 0 nan nan 98.2525 0.0000 nan 100.00%
0 0 0.0000 27 98.2525 0.0000 135 100.00%
0+ 0 nan nan 92.7013 0.0000 nan 100.00%
0+ 0 nan nan 81.5880 0.0000 nan 100.00%
0+ 0 nan nan 66.4745 0.0000 nan 100.00%
0 2 0.0000 25 66.4745 0.0000 135 100.00%
CPXPARAM_MIP_Cuts_Cliques 0
5
Node Left Objective IInf Best_Integer Best_Bound ItCnt Gap
0+ 0 nan nan 115.1924 0.0000 nan 100.00%
0+ 0 nan nan 108.1598 0.0000 nan 100.00%
0+ 0 nan nan 79.8300 0.0000 nan 100.00%
0 0 0.0000 27 79.8300 0.0000 133 100.00%
0+ 0 nan nan 76.7844 0.0000 nan 100.00%
0+ 0 nan nan 65.0419 0.0000 nan 100.00%
0+ 0 nan nan 51.7641 0.0000 nan 100.00%
0 2 0.0000 18 51.7641 0.0000 133 100.00%
CPXPARAM_MIP_Cuts_Cliques 0
6
Node Left Objective IInf Best_Integer Best_Bound ItCnt Gap
0+ 0 nan nan 115.1924 0.0000 nan 100.00%
0+ 0 nan nan 81.9438 0.0000 nan 100.00%
0 0 0.0000 23 81.9438 0.0000 129 100.00%
0+ 0 nan nan 80.6567 0.0000 nan 100.00%
0+ 0 nan nan 71.5270 0.0000 nan 100.00%
0+ 0 nan nan 69.1293 0.0000 nan 100.00%
0+ 0 nan nan 56.6842 0.0000 nan 100.00%
0 2 0.0000 20 56.6842 0.0000 129 100.00%
CPXPARAM_MIP_Cuts_Cliques 0
7
Node Left Objective IInf Best_Integer Best_Bound ItCnt Gap
0+ 0 nan nan 115.1924 0.0000 nan 100.00%
0+ 0 nan nan 81.9438 0.0000 nan 100.00%
0 0 0.0000 23 81.9438 0.0000 122 100.00%
0+ 0 nan nan 68.4953 0.0000 nan 100.00%
0+ 0 nan nan 67.9600 0.0000 nan 100.00%
0+ 0 nan nan 62.9745 0.0000 nan 100.00%
0+ 0 nan nan 56.1332 0.0000 nan 100.00%
0 2 0.0000 14 56.1332 0.0000 122 100.00%
CPXPARAM_MIP_Cuts_Cliques 0
8
Node Left Objective IInf Best_Integer Best_Bound ItCnt Gap
0+ 0 nan nan 131.6037 0.0000 nan 100.00%
0+ 0 nan nan 111.2422 0.0000 nan 100.00%
0+ 0 nan nan 109.8445 0.0000 nan 100.00%
0 0 0.0000 27 109.8445 0.0000 114 100.00%
0+ 0 nan nan 102.0897 0.0000 nan 100.00%
0+ 0 nan nan 92.9624 0.0000 nan 100.00%
0 2 0.0000 26 92.9624 0.0000 114 100.00%
CPXPARAM_MIP_Cuts_Cliques 0
9
Node Left Objective IInf Best_Integer Best_Bound ItCnt Gap
0+ 0 nan nan 131.6037 0.0000 nan 100.00%
0+ 0 nan nan 111.2422 0.0000 nan 100.00%
0 0 0.0000 27 111.2422 0.0000 125 100.00%
0+ 0 nan nan 88.6818 0.0000 nan 100.00%
0+ 0 nan nan 88.2535 0.0000 nan 100.00%
0+ 0 nan nan 70.2250 0.0000 nan 100.00%
0 2 0.0000 18 70.2250 0.0000 125 100.00%
CPXPARAM_MIP_Cuts_Cliques 0
10
Node Left Objective IInf Best_Integer Best_Bound ItCnt Gap
0+ 0 nan nan 131.6037 0.0000 nan 100.00%
0+ 0 nan nan 99.6733 0.0000 nan 100.00%
0 0 0.0000 23 99.6733 0.0000 121 100.00%
0+ 0 nan nan 96.1902 0.0000 nan 100.00%
0+ 0 nan nan 79.8820 0.0000 nan 100.00%
0 2 0.0000 20 79.8820 0.0000 121 100.00%
CPXPARAM_MIP_Cuts_Cliques 0
11
Node Left Objective IInf Best_Integer Best_Bound ItCnt Gap
0+ 0 nan nan 131.6037 0.0000 nan 100.00%
0+ 0 nan nan 99.6733 0.0000 nan 100.00%
0 0 0.0000 23 99.6733 0.0000 121 100.00%
0+ 0 nan nan 70.7338 0.0000 nan 100.00%
0+ 0 nan nan 53.9195 0.0000 nan 100.00%
0 2 0.0000 14 53.9195 0.0000 121 100.00%
CPXPARAM_MIP_Cuts_Cliques 0
12
Node Left Objective IInf Best_Integer Best_Bound ItCnt Gap
0+ 0 nan nan 110.3567 0.0000 nan 100.00%
0+ 0 nan nan 96.6816 0.0000 nan 100.00%
0 0 0.0000 27 96.6816 0.0000 120 100.00%
0+ 0 nan nan 92.0485 0.0000 nan 100.00%
0+ 0 nan nan 83.9336 0.0000 nan 100.00%
0 2 0.0000 24 83.9336 0.0000 120 100.00%
CPXPARAM_MIP_Cuts_Cliques 0
13
Node Left Objective IInf Best_Integer Best_Bound ItCnt Gap
0+ 0 nan nan 110.3567 0.0000 nan 100.00%
0+ 0 nan nan 96.6816 0.0000 nan 100.00%
0 0 0.0000 27 96.6816 0.0000 121 100.00%
0+ 0 nan nan 67.8692 0.0000 nan 100.00%
0+ 0 nan nan 62.9461 0.0000 nan 100.00%
0+ 0 nan nan 56.9066 0.0000 nan 100.00%
0 2 0.0000 18 56.9066 0.0000 121 100.00%
CPXPARAM_MIP_Cuts_Cliques 0
14
Node Left Objective IInf Best_Integer Best_Bound ItCnt Gap
0+ 0 nan nan 110.3567 0.0000 nan 100.00%
0+ 0 nan nan 82.1268 0.0000 nan 100.00%
0 0 0.0000 23 82.1268 0.0000 121 100.00%
0+ 0 nan nan 81.7048 0.0000 nan 100.00%
0 2 0.0000 20 81.7048 0.0000 121 100.00%
CPXPARAM_MIP_Cuts_Cliques 0
15
Node Left Objective IInf Best_Integer Best_Bound ItCnt Gap
0+ 0 nan nan 110.3567 0.0000 nan 100.00%
0+ 0 nan nan 82.1268 0.0000 nan 100.00%
0 0 0.0000 23 82.1268 0.0000 117 100.00%
0+ 0 nan nan 59.2187 0.0000 nan 100.00%
0+ 0 nan nan 48.2055 0.0000 nan 100.00%
0+ 0 nan nan 48.1018 0.0000 nan 100.00%
0+ 0 nan nan 42.1408 0.0000 nan 100.00%
0 2 0.0000 13 42.1408 0.0000 117 100.00%
CPXPARAM_MIP_Cuts_Cliques 0
16
Node Left Objective IInf Best_Integer Best_Bound ItCnt Gap
0+ 0 nan nan 109.2984 0.0000 nan 100.00%
0+ 0 nan nan 97.6971 0.0000 nan 100.00%
0 0 0.0000 27 97.6971 0.0000 113 100.00%
0+ 0 nan nan 95.2179 0.0000 nan 100.00%
0+ 0 nan nan 71.5144 0.0000 nan 100.00%
0 2 0.0000 25 71.5144 0.0000 113 100.00%
CPXPARAM_MIP_Cuts_Cliques 0
17
Node Left Objective IInf Best_Integer Best_Bound ItCnt Gap
0+ 0 nan nan 109.2984 0.0000 nan 100.00%
0+ 0 nan nan 97.6971 0.0000 nan 100.00%
0 0 0.0000 27 97.6971 0.0000 121 100.00%
0+ 0 nan nan 49.1084 0.0000 nan 100.00%
0+ 0 nan nan 48.0274 0.0000 nan 100.00%
0 2 0.0000 18 48.0274 0.0000 121 100.00%
CPXPARAM_MIP_Cuts_Cliques 0
18
Node Left Objective IInf Best_Integer Best_Bound ItCnt Gap
0+ 0 nan nan 109.2984 0.0000 nan 100.00%
0+ 0 nan nan 86.6088 0.0000 nan 100.00%
0 0 0.0000 23 86.6088 0.0000 118 100.00%
0+ 0 nan nan 79.3678 0.0000 nan 100.00%
0+ 0 nan nan 71.3750 0.0000 nan 100.00%
0+ 0 nan nan 57.5333 0.0000 nan 100.00%
0 2 0.0000 20 57.5333 0.0000 118 100.00%
CPXPARAM_MIP_Cuts_Cliques 0
19
Node Left Objective IInf Best_Integer Best_Bound ItCnt Gap
0+ 0 nan nan 109.2984 0.0000 nan 100.00%
0+ 0 nan nan 86.6088 0.0000 nan 100.00%
0 0 0.0000 24 86.6088 0.0000 117 100.00%
0+ 0 nan nan 44.8537 0.0000 nan 100.00%
0+ 0 nan nan 27.7409 0.0000 nan 100.00%
0 2 0.0000 14 27.7409 0.0000 117 100.00%
CPXPARAM_MIP_Cuts_Cliques 0
20
Node Left Objective IInf Best_Integer Best_Bound ItCnt Gap
0+ 0 nan nan 93.3792 0.0000 nan 100.00%
0+ 0 nan nan 84.6822 0.0000 nan 100.00%
0 0 0.0000 27 84.6822 0.0000 131 100.00%
0+ 0 nan nan 70.9667 0.0000 nan 100.00%
0+ 0 nan nan 70.7816 0.0000 nan 100.00%
0+ 0 nan nan 64.7202 0.0000 nan 100.00%
0+ 0 nan nan 57.3746 0.0000 nan 100.00%
0 2 0.0000 25 57.3746 0.0000 131 100.00%
CPXPARAM_MIP_Cuts_Cliques 0
21
Node Left Objective IInf Best_Integer Best_Bound ItCnt Gap
0+ 0 nan nan 93.3792 0.0000 nan 100.00%
0+ 0 nan nan 84.6822 0.0000 nan 100.00%
0 0 0.0000 27 84.6822 0.0000 125 100.00%
0+ 0 nan nan 46.5828 0.0000 nan 100.00%
0+ 0 nan nan 42.2090 0.0000 nan 100.00%
0+ 0 nan nan 32.6965 0.0000 nan 100.00%
0 2 0.0000 18 32.6965 0.0000 125 100.00%
CPXPARAM_MIP_Cuts_Cliques 0
22
Node Left Objective IInf Best_Integer Best_Bound ItCnt Gap
0+ 0 nan nan 93.3792 0.0000 nan 100.00%
0+ 0 nan nan 77.4137 0.0000 nan 100.00%
0 0 0.0000 23 77.4137 0.0000 135 100.00%
0+ 0 nan nan 61.3589 0.0000 nan 100.00%
0+ 0 nan nan 58.3127 0.0000 nan 100.00%
0+ 0 nan nan 48.2120 0.0000 nan 100.00%
0+ 0 nan nan 39.1372 0.0000 nan 100.00%
0 2 0.0000 20 39.1372 0.0000 135 100.00%
CPXPARAM_MIP_Cuts_Cliques 0
23
Node Left Objective IInf Best_Integer Best_Bound ItCnt Gap
0+ 0 nan nan 93.3792 0.0000 nan 100.00%
0+ 0 nan nan 77.4137 0.0000 nan 100.00%
0 0 0.0000 23 77.4137 0.0000 115 100.00%
0+ 0 nan nan 44.4047 0.0000 nan 100.00%
0+ 0 nan nan 41.1911 0.0000 nan 100.00%
0+ 0 nan nan 31.8893 0.0000 nan 100.00%
0 2 0.0000 13 31.8893 0.0000 115 100.00%
CPXPARAM_MIP_Cuts_Cliques 0
24
Node Left Objective IInf Best_Integer Best_Bound ItCnt Gap
0+ 0 nan nan 94.5045 0.0000 nan 100.00%
0+ 0 nan nan 83.7373 0.0000 nan 100.00%
0 0 0.0000 27 83.7373 0.0000 126 100.00%
0+ 0 nan nan 75.2022 0.0000 nan 100.00%
0+ 0 nan nan 74.2312 0.0000 nan 100.00%
0+ 0 nan nan 64.3336 0.0000 nan 100.00%
0+ 0 nan nan 55.9116 0.0000 nan 100.00%
0 2 0.0000 25 55.9116 0.0000 126 100.00%
CPXPARAM_MIP_Cuts_Cliques 0
25
Node Left Objective IInf Best_Integer Best_Bound ItCnt Gap
0+ 0 nan nan 94.5045 0.0000 nan 100.00%
0+ 0 nan nan 83.7373 0.0000 nan 100.00%
0 0 0.0000 27 83.7373 0.0000 119 100.00%
0+ 0 nan nan 62.9306 0.0000 nan 100.00%
0+ 0 nan nan 62.6776 0.0000 nan 100.00%
0+ 0 nan nan 61.3116 0.0000 nan 100.00%
0 2 0.0000 19 61.3116 0.0000 119 100.00%
CPXPARAM_MIP_Cuts_Cliques 0
26
Node Left Objective IInf Best_Integer Best_Bound ItCnt Gap
0+ 0 nan nan 94.5045 0.0000 nan 100.00%
0+ 0 nan nan 77.4984 0.0000 nan 100.00%
0 0 0.0000 23 77.4984 0.0000 120 100.00%
0+ 0 nan nan 68.8610 0.0000 nan 100.00%
0+ 0 nan nan 68.5661 0.0000 nan 100.00%
0+ 0 nan nan 68.3266 0.0000 nan 100.00%
0+ 0 nan nan 51.5247 0.0000 nan 100.00%
0 2 0.0000 20 51.5247 0.0000 120 100.00%
CPXPARAM_MIP_Cuts_Cliques 0
27
Node Left Objective IInf Best_Integer Best_Bound ItCnt Gap
0+ 0 nan nan 94.5045 0.0000 nan 100.00%
0+ 0 nan nan 77.4984 0.0000 nan 100.00%
0 0 0.0000 23 77.4984 0.0000 116 100.00%
0+ 0 nan nan 42.7585 0.0000 nan 100.00%
0+ 0 nan nan 32.3132 0.0000 nan 100.00%
0 2 0.0000 13 32.3132 0.0000 116 100.00%
CPXPARAM_MIP_Cuts_Cliques 0
28
Node Left Objective IInf Best_Integer Best_Bound ItCnt Gap
0+ 0 nan nan 133.7092 0.0000 nan 100.00%
0+ 0 nan nan 129.6212 0.0000 nan 100.00%
0+ 0 nan nan 108.6480 0.0000 nan 100.00%
0 0 0.0000 27 108.6480 0.0000 133 100.00%
0+ 0 nan nan 101.7481 0.0000 nan 100.00%
0+ 0 nan nan 97.0502 0.0000 nan 100.00%
0 2 0.0000 25 97.0502 0.0000 133 100.00%
CPXPARAM_MIP_Cuts_Cliques 0
29
Node Left Objective IInf Best_Integer Best_Bound ItCnt Gap
0+ 0 nan nan 133.7092 0.0000 nan 100.00%
0+ 0 nan nan 129.6212 0.0000 nan 100.00%
0 0 0.0000 28 129.6212 0.0000 125 100.00%
0+ 0 nan nan 64.4748 0.0000 nan 100.00%
0+ 0 nan nan 63.1629 0.0000 nan 100.00%
0+ 0 nan nan 61.6458 0.0000 nan 100.00%
0 2 0.0000 19 61.6458 0.0000 125 100.00%
CPXPARAM_MIP_Cuts_Cliques 0
30
Node Left Objective IInf Best_Integer Best_Bound ItCnt Gap
0+ 0 nan nan 133.7092 0.0000 nan 100.00%
0+ 0 nan nan 114.7297 0.0000 nan 100.00%
0 0 0.0000 23 114.7297 0.0000 115 100.00%
0+ 0 nan nan 105.7685 0.0000 nan 100.00%
0+ 0 nan nan 95.3020 0.0000 nan 100.00%
0+ 0 nan nan 84.3804 0.0000 nan 100.00%
0+ 0 nan nan 73.2018 0.0000 nan 100.00%
0 2 0.0000 20 73.2018 0.0000 115 100.00%
CPXPARAM_MIP_Cuts_Cliques 0
31
Node Left Objective IInf Best_Integer Best_Bound ItCnt Gap
0+ 0 nan nan 133.7092 0.0000 nan 100.00%
0+ 0 nan nan 114.7297 0.0000 nan 100.00%
0 0 0.0000 23 114.7297 0.0000 128 100.00%
0+ 0 nan nan 68.5774 0.0000 nan 100.00%
0+ 0 nan nan 64.2060 0.0000 nan 100.00%
0+ 0 nan nan 57.1399 0.0000 nan 100.00%
0 2 0.0000 14 57.1399 0.0000 128 100.00%
CPXPARAM_MIP_Cuts_Cliques 0
32
Node Left Objective IInf Best_Integer Best_Bound ItCnt Gap
0+ 0 nan nan 110.7059 0.0000 nan 100.00%
0+ 0 nan nan 93.8685 0.0000 nan 100.00%
0+ 0 nan nan 88.1652 0.0000 nan 100.00%
0 0 0.0000 27 88.1652 0.0000 119 100.00%
0+ 0 nan nan 84.4998 0.0000 nan 100.00%
0+ 0 nan nan 65.6809 0.0000 nan 100.00%
0 2 0.0000 26 65.6809 0.0000 119 100.00%
CPXPARAM_MIP_Cuts_Cliques 0
33
Node Left Objective IInf Best_Integer Best_Bound ItCnt Gap
0+ 0 nan nan 110.7059 0.0000 nan 100.00%
0+ 0 nan nan 93.8685 0.0000 nan 100.00%
0 0 0.0000 27 93.8685 0.0000 116 100.00%
0+ 0 nan nan 60.5684 0.0000 nan 100.00%
0+ 0 nan nan 41.4875 0.0000 nan 100.00%
0 2 0.0000 18 41.4875 0.0000 116 100.00%
CPXPARAM_MIP_Cuts_Cliques 0
34
Node Left Objective IInf Best_Integer Best_Bound ItCnt Gap
0+ 0 nan nan 110.7059 0.0000 nan 100.00%
0+ 0 nan nan 74.9711 0.0000 nan 100.00%
0 0 0.0000 23 74.9711 0.0000 120 100.00%
0+ 0 nan nan 70.5384 0.0000 nan 100.00%
0+ 0 nan nan 68.4582 0.0000 nan 100.00%
0+ 0 nan nan 56.5884 0.0000 nan 100.00%
0+ 0 nan nan 47.2519 0.0000 nan 100.00%
0 2 0.0000 20 47.2519 0.0000 120 100.00%
CPXPARAM_MIP_Cuts_Cliques 0
35
Node Left Objective IInf Best_Integer Best_Bound ItCnt Gap
0+ 0 nan nan 110.7059 0.0000 nan 100.00%
0+ 0 nan nan 74.9711 0.0000 nan 100.00%
0 0 0.0000 23 74.9711 0.0000 113 100.00%
0+ 0 nan nan 53.1990 0.0000 nan 100.00%
0+ 0 nan nan 49.8685 0.0000 nan 100.00%
0 2 0.0000 15 49.8685 0.0000 113 100.00%
CPXPARAM_MIP_Cuts_Cliques 0
36
Node Left Objective IInf Best_Integer Best_Bound ItCnt Gap
0+ 0 nan nan 123.7135 0.0000 nan 100.00%
0+ 0 nan nan 108.6148 0.0000 nan 100.00%
0+ 0 nan nan 99.0366 0.0000 nan 100.00%
0 0 0.0000 27 99.0366 0.0000 131 100.00%
0+ 0 nan nan 98.7082 0.0000 nan 100.00%
0+ 0 nan nan 97.3821 0.0000 nan 100.00%
0+ 0 nan nan 94.1408 0.0000 nan 100.00%
0+ 0 nan nan 80.4546 0.0000 nan 100.00%
0 2 0.0000 25 80.4546 0.0000 131 100.00%
CPXPARAM_MIP_Cuts_Cliques 0
37
Node Left Objective IInf Best_Integer Best_Bound ItCnt Gap
0+ 0 nan nan 123.7135 0.0000 nan 100.00%
0+ 0 nan nan 108.6148 0.0000 nan 100.00%
0 0 0.0000 27 108.6148 0.0000 128 100.00%
0+ 0 nan nan 83.1888 0.0000 nan 100.00%
0+ 0 nan nan 80.2505 0.0000 nan 100.00%
0+ 0 nan nan 58.5686 0.0000 nan 100.00%
0 2 0.0000 18 58.5686 0.0000 128 100.00%
CPXPARAM_MIP_Cuts_Cliques 0
38
Node Left Objective IInf Best_Integer Best_Bound ItCnt Gap
0+ 0 nan nan 123.7135 0.0000 nan 100.00%
0+ 0 nan nan 89.1896 0.0000 nan 100.00%
0 0 0.0000 23 89.1896 0.0000 134 100.00%
0+ 0 nan nan 83.5087 0.0000 nan 100.00%
0+ 0 nan nan 70.6626 0.0000 nan 100.00%
0+ 0 nan nan 59.3814 0.0000 nan 100.00%
0+ 0 nan nan 58.6083 0.0000 nan 100.00%
0 2 0.0000 20 58.6083 0.0000 134 100.00%
CPXPARAM_MIP_Cuts_Cliques 0
39
Node Left Objective IInf Best_Integer Best_Bound ItCnt Gap
0+ 0 nan nan 123.7135 0.0000 nan 100.00%
0+ 0 nan nan 89.1896 0.0000 nan 100.00%
0 0 0.0000 24 89.1896 0.0000 114 100.00%
0+ 0 nan nan 58.9767 0.0000 nan 100.00%
0+ 0 nan nan 54.7604 0.0000 nan 100.00%
0+ 0 nan nan 52.9230 0.0000 nan 100.00%
0+ 0 nan nan 35.3690 0.0000 nan 100.00%
0 2 0.0000 14 35.3690 0.0000 114 100.00%
CPXPARAM_MIP_Cuts_Cliques 0
